p cnf 183 394
-37 -1 0
-37 2 0
37 1 -2 0
-38 -4 0
-38 6 0
38 4 -6 0
-39 -8 0
-39 10 0
39 8 -10 0
-40 -12 0
-40 14 0
40 12 -14 0
-41 -16 0
-41 18 0
41 16 -18 0
-42 -20 0
-42 22 0
42 20 -22 0
-43 -24 0
-43 26 0
43 24 -26 0
-44 -28 0
-44 30 0
44 28 -30 0
-45 -32 0
-45 34 0
45 32 -34 0
-46 -37 0
-46 -38 0
46 37 38 0
-47 -39 0
-47 46 0
47 39 -46 0
-48 -40 0
-48 47 0
48 40 -47 0
-49 -41 0
-49 48 0
49 41 -48 0
-50 -42 0
-50 49 0
50 42 -49 0
-51 -43 0
-51 50 0
51 43 -50 0
-52 -44 0
-52 51 0
52 44 -51 0
-53 -45 0
-53 52 0
53 45 -52 0
-54 -53 37 0
-54 53 -37 0
54 -53 -37 0
54 53 37 0
-55 2 0
-55 -3 0
55 -2 3 0
-56 -54 0
-56 55 0
56 54 -55 0
-57 -53 38 0
-57 53 -38 0
57 -53 -38 0
57 53 38 0
-58 6 0
-58 -7 0
58 -6 7 0
-59 -57 0
-59 58 0
59 57 -58 0
-60 -53 39 0
-60 53 -39 0
60 -53 -39 0
60 53 39 0
-61 10 0
-61 -11 0
61 -10 11 0
-62 -60 0
-62 61 0
62 60 -61 0
-63 -53 40 0
-63 53 -40 0
63 -53 -40 0
63 53 40 0
-64 14 0
-64 -15 0
64 -14 15 0
-65 -63 0
-65 64 0
65 63 -64 0
-66 -53 41 0
-66 53 -41 0
66 -53 -41 0
66 53 41 0
-67 18 0
-67 -19 0
67 -18 19 0
-68 -66 0
-68 67 0
68 66 -67 0
-69 -53 42 0
-69 53 -42 0
69 -53 -42 0
69 53 42 0
-70 22 0
-70 -23 0
70 -22 23 0
-71 -69 0
-71 70 0
71 69 -70 0
-72 -53 43 0
-72 53 -43 0
72 -53 -43 0
72 53 43 0
-73 26 0
-73 -27 0
73 -26 27 0
-74 -72 0
-74 73 0
74 72 -73 0
-75 -53 44 0
-75 53 -44 0
75 -53 -44 0
75 53 44 0
-76 30 0
-76 -31 0
76 -30 31 0
-77 -75 0
-77 76 0
77 75 -76 0
-78 -53 45 0
-78 53 -45 0
78 -53 -45 0
78 53 45 0
-79 34 0
-79 -35 0
79 -34 35 0
-80 -78 0
-80 79 0
80 78 -79 0
-81 -56 0
-81 -59 0
81 56 59 0
-82 -62 0
-82 81 0
82 62 -81 0
-83 -65 0
-83 82 0
83 65 -82 0
-84 -68 0
-84 83 0
84 68 -83 0
-85 -71 0
-85 84 0
85 71 -84 0
-86 -74 0
-86 85 0
86 74 -85 0
-87 -77 0
-87 86 0
87 77 -86 0
-88 -80 0
-88 87 0
88 80 -87 0
-89 -88 56 0
-89 88 -56 0
89 -88 -56 0
89 88 56 0
-90 2 0
-90 -5 0
90 -2 5 0
-91 -54 0
-91 90 0
91 54 -90 0
-92 -89 0
-92 91 0
92 89 -91 0
-93 -88 59 0
-93 88 -59 0
93 -88 -59 0
93 88 59 0
-94 6 0
-94 -9 0
94 -6 9 0
-95 -57 0
-95 94 0
95 57 -94 0
-96 -93 0
-96 95 0
96 93 -95 0
-97 -88 62 0
-97 88 -62 0
97 -88 -62 0
97 88 62 0
-98 10 0
-98 -13 0
98 -10 13 0
-99 -60 0
-99 98 0
99 60 -98 0
-100 -97 0
-100 99 0
100 97 -99 0
-101 -88 65 0
-101 88 -65 0
101 -88 -65 0
101 88 65 0
-102 14 0
-102 -17 0
102 -14 17 0
-103 -63 0
-103 102 0
103 63 -102 0
-104 -101 0
-104 103 0
104 101 -103 0
-105 -88 68 0
-105 88 -68 0
105 -88 -68 0
105 88 68 0
-106 18 0
-106 -21 0
106 -18 21 0
-107 -66 0
-107 106 0
107 66 -106 0
-108 -105 0
-108 107 0
108 105 -107 0
-109 -88 71 0
-109 88 -71 0
109 -88 -71 0
109 88 71 0
-110 22 0
-110 -25 0
110 -22 25 0
-111 -69 0
-111 110 0
111 69 -110 0
-112 -109 0
-112 111 0
112 109 -111 0
-113 -88 74 0
-113 88 -74 0
113 -88 -74 0
113 88 74 0
-114 26 0
-114 -29 0
114 -26 29 0
-115 -72 0
-115 114 0
115 72 -114 0
-116 -113 0
-116 115 0
116 113 -115 0
-117 -88 77 0
-117 88 -77 0
117 -88 -77 0
117 88 77 0
-118 30 0
-118 -33 0
118 -30 33 0
-119 -75 0
-119 118 0
119 75 -118 0
-120 -117 0
-120 119 0
120 117 -119 0
-121 -88 80 0
-121 88 -80 0
121 -88 -80 0
121 88 80 0
-122 34 0
-122 -36 0
122 -34 36 0
-123 -78 0
-123 122 0
123 78 -122 0
-124 -121 0
-124 123 0
124 121 -123 0
-125 -92 0
-125 -96 0
125 92 96 0
-126 -100 0
-126 125 0
126 100 -125 0
-127 -104 0
-127 126 0
127 104 -126 0
-128 -108 0
-128 127 0
128 108 -127 0
-129 -112 0
-129 128 0
129 112 -128 0
-130 -116 0
-130 129 0
130 116 -129 0
-131 -120 0
-131 130 0
131 120 -130 0
-132 -124 0
-132 131 0
132 124 -131 0
133 -4 53 0
134 -7 88 0
135 -9 132 0
-136 -133 0
-136 -134 0
-137 -135 0
-137 136 0
-138 6 0
-138 137 0
-139 8 0
-139 -53 0
-140 11 0
-140 -88 0
-141 13 0
-141 -132 0
142 139 140 0
143 141 -142 0
144 -10 -143 0
-145 12 0
-145 -53 0
145 -12 53 0
-146 15 0
-146 -88 0
146 -15 88 0
-147 17 0
-147 -132 0
147 -17 132 0
-148 -145 0
-148 -146 0
148 145 146 0
-149 -147 0
-149 148 0
149 147 -148 0
-150 14 0
-150 149 0
150 -14 -149 0
-151 16 0
-151 -53 0
-152 19 0
-152 -88 0
-153 21 0
-153 -132 0
154 151 152 0
155 153 -154 0
156 -18 -155 0
157 -20 53 0
158 -23 88 0
159 -25 132 0
-160 -157 0
-160 -158 0
-161 -159 0
-161 160 0
-162 22 0
-162 161 0
-163 24 0
-163 -53 0
-164 27 0
-164 -88 0
-165 29 0
-165 -132 0
166 163 164 0
167 165 -166 0
168 -26 -167 0
169 -28 53 0
170 -31 88 0
171 -33 132 0
-172 -169 0
-172 -170 0
-173 -171 0
-173 172 0
-174 30 0
-174 173 0
-175 -144 0
-175 150 0
-176 -144 0
-176 -150 0
-177 162 0
-177 176 0
-178 -156 0
-178 177 0
-179 -168 0
-179 176 0
-180 174 0
-180 179 0
181 138 175 0
182 178 -181 0
183 180 -182 0
-183 0
